30
1 0 77
2 0 95
2 1 51
3 0 93
3 1 10
3 2 63
4 0 14
4 1 32
4 2 77
4 3 37
5 0 54
5 1 18
5 2 15
5 3 34
5 4 92
6 0 10
6 1 78
6 2 27
6 3 29
6 4 77
6 5 73
7 0 34
7 1 69
7 2 36
7 3 16
7 4 30
7 5 30
7 6 10
8 0 22
8 1 59
8 2 46
8 3 38
8 4 27
8 5 37
8 6 86
8 7 5
9 0 93
9 1 68
9 2 49
9 3 59
9 4 54
9 5 28
9 6 97
9 7 44
9 8 98
10 0 68
10 1 43
10 2 57
10 3 84
10 4 51
10 5 13
10 6 16
10 7 69
10 8 36
10 9 38
11 0 94
11 1 54
11 2 47
11 3 49
11 4 51
11 5 2
11 6 19
11 7 77
11 8 76
11 9 85
11 10 88
12 0 91
12 1 18
12 2 43
12 3 69
12 4 18
12 5 73
12 6 88
12 7 62
12 8 30
12 9 43
12 10 71
12 11 45
13 0 89
13 1 96
13 2 94
13 3 70
13 4 91
13 5 93
13 6 40
13 7 61
13 8 47
13 9 53
13 10 57
13 11 78
13 12 91
14 0 78
14 1 10
14 2 4
14 3 4
14 4 58
14 5 85
14 6 65
14 7 91
14 8 23
14 9 30
14 10 84
14 11 59
14 12 26
14 13 37
15 0 37
15 1 75
15 2 53
15 3 21
15 4 65
15 5 97
15 6 13
15 7 49
15 8 43
15 9 24
15 10 48
15 11 9
15 12 29
15 13 93
15 14 52
16 0 39
16 1 40
16 2 21
16 3 17
16 4 52
16 5 14
16 6 83
16 7 23
16 8 21
16 9 71
16 10 47
16 11 39
16 12 18
16 13 83
16 14 42
16 15 24
17 0 10
17 1 96
17 2 5
17 3 18
17 4 67
17 5 83
17 6 29
17 7 79
17 8 36
17 9 22
17 10 39
17 11 8
17 12 72
17 13 17
17 14 35
17 15 46
17 16 44
18 0 100
18 1 88
18 2 61
18 3 50
18 4 11
18 5 98
18 6 53
18 7 10
18 8 14
18 9 21
18 10 30
18 11 29
18 12 5
18 13 33
18 14 47
18 15 32
18 16 34
18 17 10
19 0 5
19 1 26
19 2 23
19 3 11
19 4 65
19 5 46
19 6 72
19 7 99
19 8 3
19 9 68
19 10 75
19 11 62
19 12 16
19 13 19
19 14 91
19 15 91
19 16 80
19 17 10
19 18 38
20 0 33
20 1 87
20 2 61
20 3 18
20 4 40
20 5 19
20 6 8
20 7 70
20 8 60
20 9 59
20 10 10
20 11 23
20 12 66
20 13 22
20 14 83
20 15 100
20 16 96
20 17 57
20 18 45
20 19 83
21 0 63
21 1 78
21 2 40
21 3 48
21 4 59
21 5 90
21 6 74
21 7 22
21 8 44
21 9 45
21 10 86
21 11 33
21 12 31
21 13 37
21 14 38
21 15 43
21 16 65
21 17 5
21 18 91
21 19 97
21 20 80
22 0 30
22 1 98
22 2 18
22 3 93
22 4 29
22 5 51
22 6 26
22 7 34
22 8 74
22 9 38
22 10 86
22 11 59
22 12 13
22 13 6
22 14 84
22 15 70
22 16 55
22 17 48
22 18 2
22 19 44
22 20 36
22 21 44
23 0 40
23 1 61
23 2 5
23 3 28
23 4 96
23 5 53
23 6 77
23 7 66
23 8 20
23 9 43
23 10 46
23 11 65
23 12 81
23 13 28
23 14 56
23 15 42
23 16 36
23 17 33
23 18 79
23 19 34
23 20 70
23 21 42
23 22 39
24 0 20
24 1 55
24 2 66
24 3 76
24 4 79
24 5 49
24 6 33
24 7 64
24 8 30
24 9 34
24 10 86
24 11 100
24 12 5
24 13 52
24 14 27
24 15 34
24 16 45
24 17 99
24 18 56
24 19 25
24 20 56
24 21 92
24 22 87
24 23 21
25 0 28
25 1 95
25 2 27
25 3 2
25 4 14
25 5 99
25 6 64
25 7 48
25 8 39
25 9 68
25 10 11
25 11 8
25 12 64
25 13 9
25 14 67
25 15 81
25 16 35
25 17 28
25 18 28
25 19 47
25 20 94
25 21 65
25 22 35
25 23 93
25 24 24
26 0 45
26 1 55
26 2 38
26 3 63
26 4 66
26 5 32
26 6 41
26 7 9
26 8 19
26 9 40
26 10 47
26 11 91
26 12 22
26 13 41
26 14 14
26 15 90
26 16 85
26 17 24
26 18 12
26 19 28
26 20 69
26 21 81
26 22 99
26 23 61
26 24 93
26 25 31
27 0 10
27 1 43
27 2 87
27 3 23
27 4 13
27 5 52
27 6 25
27 7 62
27 8 19
27 9 87
27 10 67
27 11 35
27 12 52
27 13 79
27 14 89
27 15 53
27 16 15
27 17 84
27 18 94
27 19 13
27 20 7
27 21 36
27 22 36
27 23 49
27 24 74
27 25 90
27 26 76
28 0 50
28 1 5
28 2 83
28 3 72
28 4 30
28 5 6
28 6 79
28 7 80
28 8 97
28 9 5
28 10 94
28 11 86
28 12 57
28 13 82
28 14 4
28 15 28
28 16 46
28 17 20
28 18 91
28 19 64
28 20 72
28 21 16
28 22 76
28 23 92
28 24 16
28 25 9
28 26 37
28 27 36
29 0 20
29 1 19
29 2 26
29 3 49
29 4 64
29 5 77
29 6 22
29 7 98
29 8 16
29 9 15
29 10 84
29 11 35
29 12 86
29 13 49
29 14 99
29 15 64
29 16 41
29 17 40
29 18 31
29 19 60
29 20 55
29 21 63
29 22 20
29 23 2
29 24 88
29 25 83
29 26 83
29 27 25
29 28 43
